32      4       
14      14      13      12      
0       0       0       0       0       3       2       3       4       
5       0       4       8       1       3       7       11      16      
4       6       0       5       0       3       5       12      17      
9       0       0       6       0       3       6       10      13      
8       0       1       7       0       1       23      
9       0       7       0       3       3       8       19      26      
6       0       0       0       6       3       9       13      19      
4       0       6       0       4       3       14      20      28      
6       0       0       0       4       3       12      17      22      
6       3       5       10      10      3       11      12      19      
10      0       7       0       1       3       15      18      20      
10      4       10      7       0       2       14      20      
2       6       0       0       4       3       17      18      28      
8       4       0       0       0       2       24      31      
7       9       0       8       4       2       21      22      
6       0       1       7       1       2       18      21      
10      6       0       6       0       3       21      23      27      
1       9       1       0       0       1       26      
6       0       9       9       0       3       22      24      27      
2       0       8       0       0       3       25      27      30      
7       7       0       8       0       3       24      25      26      
8       0       0       8       8       2       23      28      
4       0       0       0       1       3       25      30      31      
6       0       2       2       5       1       30      
2       5       8       0       6       1       29      
2       10      5       0       0       1       29      
7       0       0       5       0       1       31      
5       0       8       7       0       1       29      
6       0       0       6       9       1       32      
2       0       2       0       2       1       32      
1       9       0       0       6       1       32      
0       0       0       0       0       0       